%chk=gaussian.chk
%mem=8GB
%nprocshared=16

#M052X/Aug-cc-pVTZ Force EmpiricalDispersion=GD3 SCF=Tight Int(Grid=UltraFine) NoSymm

M052X/Aug-cc-pVTZ single-point + gradient (from old.orc_job.dat ORCA ENGRAD)

2 1
Zn      0.904785   -0.083399   -0.185214
N       0.879623   -2.646412    3.381473
N       0.809916   -1.438748    1.569209
C       1.453846   -1.631482    2.707357
C       2.623858   -0.880136    3.237443
C      -0.178298   -3.125576    2.652325
C      -0.212658   -2.364380    1.532298
H       1.177935   -2.984193    4.279712
H       2.441924    0.189824    3.192440
H       3.519739   -1.094929    2.661334
H       2.805708   -1.152566    4.272249
H      -0.794717   -3.936080    2.988952
H      -0.901681   -2.413282    0.710113
N       1.348028    2.919215   -3.280811
N       0.826415    1.536862   -1.677735
C       1.715096    1.805294   -2.619201
C       2.947193    1.037775   -2.937079
C       0.177427    3.390757   -2.744106
C      -0.136998    2.522783   -1.750622
H       1.848629    3.324733   -4.051261
H       2.803038   -0.007414   -2.687066
H       3.796940    1.412392   -2.369560
H       3.181447    1.114782   -3.994796
H      -0.317054    4.267526   -3.112721
H      -0.987176    2.535816   -1.098149
N       0.912560   -3.407517   -2.832296
N       0.855085   -1.593071   -1.632264
C       1.286402   -2.845216   -1.669940
C       2.078780   -3.575112   -0.646362
C       0.216572   -2.489165   -3.575573
C       0.188410   -1.364678   -2.823234
H       1.120980   -4.351018   -3.107902
H       2.244791   -2.938718    0.213257
H       3.036190   -3.886618   -1.058879
H       1.547387   -4.464138   -0.314800
H      -0.182410   -2.711740   -4.545575
H      -0.244567   -0.411162   -3.054362
N      -2.910247    0.914212    1.385893
N      -1.088362    0.394421    0.318110
C      -1.566151    0.910403    1.434827
C      -0.778096    1.445640    2.573841
C      -3.314354    0.377146    0.190174
C      -2.172643    0.058416   -0.466407
H      -3.515095    1.258363    2.110647
H      -0.756543    2.533417    2.552137
H       0.237557    1.070133    2.510729
H      -1.205504    1.132308    3.522510
H      -4.347564    0.270341   -0.076386
H      -2.061322   -0.394565   -1.432394
N       4.643698    1.642101    0.817918
N       2.863722    0.507597    0.290166
C       3.300851    1.676263    0.724262
C       2.475288    2.853753    1.095104
C       5.087887    0.403807    0.426892
C       3.970533   -0.292022    0.101483
H       5.220561    2.403924    1.127006
H       2.275662    2.864136    2.165237
H       1.532048    2.820804    0.559115
H       2.985916    3.778154    0.840625
H       6.127371    0.141534    0.406086
H       3.892674   -1.296341   -0.267403

